c Reduced graph for miles250_0 generated by Cyril Grelier
p edge 110 345
e 1 2
e 1 3
e 1 4
e 1 5
e 1 6
e 1 8
e 1 9
e 1 10
e 1 11
e 1 14
e 1 16
e 1 20
e 1 21
e 1 22
e 1 28
e 1 34
e 2 3
e 2 4
e 2 5
e 2 6
e 2 8
e 2 9
e 2 10
e 2 11
e 2 13
e 2 16
e 2 22
e 2 23
e 2 28
e 2 34
e 3 5
e 3 8
e 3 9
e 3 10
e 3 14
e 3 15
e 3 20
e 3 21
e 3 22
e 3 26
e 3 29
e 3 38
e 4 5
e 4 6
e 4 9
e 4 10
e 4 11
e 4 13
e 4 23
e 4 28
e 4 34
e 4 36
e 4 46
e 5 6
e 5 8
e 5 9
e 5 10
e 5 11
e 5 13
e 5 22
e 5 23
e 5 28
e 6 9
e 6 10
e 6 11
e 6 13
e 6 23
e 6 28
e 6 34
e 6 36
e 6 46
e 7 12
e 7 14
e 7 15
e 7 17
e 7 18
e 7 19
e 7 20
e 7 21
e 7 24
e 7 25
e 7 33
e 7 53
e 7 95
e 8 9
e 8 10
e 8 14
e 8 22
e 8 26
e 8 29
e 8 38
e 8 40
e 9 10
e 9 11
e 9 13
e 9 22
e 9 26
e 10 13
e 10 22
e 10 23
e 10 46
e 11 13
e 11 16
e 11 23
e 11 28
e 11 34
e 11 36
e 12 14
e 12 15
e 12 16
e 12 17
e 12 18
e 12 19
e 12 20
e 12 21
e 12 24
e 12 25
e 12 73
e 13 22
e 13 23
e 13 36
e 13 46
e 14 15
e 14 16
e 14 20
e 14 21
e 14 24
e 14 29
e 15 16
e 15 17
e 15 20
e 15 21
e 15 24
e 15 25
e 15 29
e 16 20
e 16 21
e 16 24
e 16 28
e 17 18
e 17 19
e 17 20
e 17 21
e 17 24
e 17 25
e 17 73
e 18 19
e 18 25
e 18 30
e 18 31
e 18 33
e 18 53
e 18 73
e 19 25
e 19 30
e 19 31
e 19 33
e 19 73
e 19 98
e 20 21
e 20 24
e 21 24
e 22 26
e 23 36
e 23 46
e 24 25
e 25 33
e 25 53
e 26 29
e 26 38
e 26 40
e 26 41
e 26 83
e 27 35
e 27 37
e 27 45
e 27 48
e 27 56
e 27 60
e 27 77
e 27 79
e 28 34
e 29 38
e 29 40
e 29 41
e 30 31
e 30 33
e 30 35
e 30 45
e 30 48
e 30 78
e 31 35
e 31 45
e 31 48
e 31 77
e 31 78
e 32 52
e 32 54
e 32 62
e 32 63
e 32 64
e 32 68
e 32 92
e 32 94
e 33 53
e 33 65
e 33 78
e 34 36
e 35 37
e 35 45
e 35 48
e 35 77
e 36 46
e 37 45
e 37 48
e 37 56
e 37 77
e 37 79
e 38 40
e 38 41
e 38 95
e 39 47
e 39 61
e 39 66
e 39 67
e 39 69
e 39 74
e 39 76
e 40 41
e 40 72
e 40 83
e 41 72
e 41 83
e 41 95
e 42 43
e 42 44
e 42 49
e 42 50
e 42 51
e 42 57
e 43 44
e 43 49
e 43 50
e 43 51
e 43 57
e 44 49
e 44 50
e 44 51
e 44 57
e 45 48
e 47 66
e 47 69
e 47 74
e 47 97
e 47 101
e 49 50
e 49 51
e 49 57
e 50 51
e 50 57
e 51 80
e 52 54
e 52 62
e 52 63
e 52 64
e 52 72
e 53 65
e 53 78
e 54 62
e 54 63
e 54 64
e 54 68
e 55 71
e 55 75
e 55 76
e 55 82
e 55 84
e 55 93
e 56 60
e 56 70
e 56 79
e 56 96
e 58 59
e 58 85
e 58 86
e 58 89
e 58 91
e 59 85
e 59 86
e 59 89
e 59 91
e 60 70
e 60 79
e 60 96
e 61 66
e 61 67
e 61 76
e 61 82
e 62 63
e 62 64
e 63 72
e 64 68
e 65 75
e 65 78
e 65 84
e 66 74
e 66 97
e 67 69
e 67 74
e 67 81
e 68 92
e 68 94
e 69 74
e 69 81
e 70 71
e 70 77
e 70 96
e 71 75
e 71 84
e 71 93
e 72 83
e 73 98
e 75 76
e 75 84
e 76 82
e 80 87
e 80 88
e 80 90
e 81 100
e 81 102
e 82 93
e 85 86
e 87 88
e 87 90
e 88 90
e 89 91
e 92 94
e 97 101
e 99 103
e 99 104
e 100 102
e 103 104
e 105 106
e 107 108
e 109 110
